proyfinal/src/viki/013/experimentInOfficeAgust.take6.output/80608f2e-1594-48e7-923f-baf62cac5509.als.dat
{'cnf.clauses': '118081',
 'cnf.totvars': '69608',
 'conflict literals': '1576',
 'conflicts': '252',
 'decisions': '35603',
 'memused.mb': '17.04',
 'outcome': 'UNSAT',
 'propagations': '345284',
 'restarts': '3',
 'solver.msecs': 44,
 'task.msecs': 91}
