proyfinal/src/viki/013/experimentInOfficeAgust.take6.output/80608f2e-1594-48e7-923f-baf62cac5509.als.out
Reading from standard input... Use '--help' for help.
============================[ Problem Statistics ]=============================
|                                                                             |
|  Number of variables:         69608                                         |
|  Number of clauses:          118081                                         |
|  Parse time:                   0.02 s                                       |
|                                                                             |
============================[ Search Statistics ]==============================
| Conflicts |          ORIGINAL         |          LEARNT          | Progress |
|           |    Vars  Clauses Literals |    Limit  Clauses Lit/Cl |          |
===============================================================================
|       100 |   56860    82506   204255 |    30252       93      4 | 18.314 % |
|       250 |   55049    80982   200487 |    33277      218      7 | 20.916 % |
===============================================================================
restarts              : 3
conflicts             : 252            (5628 /sec)
decisions             : 35603          (0.00 % random) (795154 /sec)
propagations          : 345284         (7711535 /sec)
conflict literals     : 1576           (22.10 % deleted)
Memory used           : 17.04 MB
CPU time              : 0.044775 s

UNSATISFIABLE
